27 3
6 3 4
0 0 0 0 25 2 3 4 5 6 7 8 9 10 11 12 13 14 15 16 17 18 19 20 21 22 23 24 25 26
2 2 0 2 5 27 10 15 26 19
5 3 1 2 6 27 13 18 13 14 14
3 3 1 1 3 27 26 25
2 3 0 1 8 27 21 14 15 14 8 11 14
4 0 1 2 4 27 9 7 17
5 2 1 0 1 27
5 0 0 2 9 27 22 14 21 19 13 20 12 20
3 1 0 1 4 27 24 25 11
1 1 1 2 2 27 16
2 0 1 0 1 27
1 0 1 1 2 27 15
4 2 1 1 2 27 22
4 3 1 2 1 27
5 3 1 1 2 27 16
4 0 0 1 1 27
5 0 0 1 4 27 21 23 21
1 0 1 1 2 27 21
4 2 1 1 3 27 22 21
5 0 1 1 3 27 26 24
2 2 1 0 2 27 22
3 0 0 1 1 27
1 1 0 2 1 27
3 2 0 2 1 27
2 0 0 2 1 27
5 0 0 2 1 27
0 0 0 0 0
